40 42
1 22
1 22
1 22
1 22
1 22
1 22
1 22
1 22
1 22
1 22
1 22
1 22
1 22
1 22
1 22
1 22
1 22
1 22
1 22
1 22
43 22
43 22
43 22
43 22
43 22
43 22
43 22
43 22
43 22
43 22
43 22
43 22
43 22
43 22
43 22
43 22
43 22
43 22
43 22
43 22
